NAME : morphed22-5-23
COMMENT : Generated using the function morphInstances from the R-package netgen (Bossek,2015) - Number of clusters: 5 Alpha: 0.5
TYPE : TSP
DIMENSION : 22
EDGE_WEIGHT_TYPE : EUC_2D
NODE_COORD_SECTION
1 43.7371428955 22.037873103
2 20.8798954204 81.5279416507
3 31.2083360551 38.5481798418
4 68.7621930713 83.1011926998
5 66.3543650515 57.0695582173
6 32.3061272837 93.6414412834
7 95.9284808786 5.9042462543
8 82.6556667923 76.9502115378
9 68.988061015 52.2414590317
10 99.2888636678 16.9393689105
11 75.2278879179 34.4922102103
12 64.9778795705 37.3153797069
13 33.9023094121 34.5928905168
14 26.3874585351 88.6727692179
15 89.3760736462 18.7839090667
16 14.6366593074 91.6396599344
17 56.4518873474 85.7726180659
18 54.9823653713 29.7972473063
19 79.84262809 79.2163573297
20 78.9154893028 4.2295837558
21 55.1743710661 35.7185852393
22 26.2624157542 54.1986470978
EOF
